p cnf 11 18
9 -2 -7 6 6 0
-7 3 -1 -2 -8 -9 2 9 -10 0
2 9 -4 7 -4 11 9 -4 0
8 8 3 7 6 9 0
6 9 -9 0
11 2 2 -7 9 9 -6 -8 -7 0
-10 -5 4 0
11 -6 -11 -7 -3 8 0
-8 -3 8 6 -10 4 -6 0
8 -11 7 -9 5 -6 1 -10 3 0
10 -7 8 -9 -11 -6 0
-7 5 7 0
-11 -6 -4 -5 -9 4 5 0
-6 -6 -1 4 -8 -6 2 -2 -5 -9 0
6 -10 10 4 7 -7 -10 -5 -10 0
8 1 2 6 -6 5 9 7 -2 0
7 -4 -6 -10 6 2 -5 -11 -4 0
3 10 -9 -6 5 0